% number of games is 70
num = 70;
cap = 5;
refill = 2;
fun = [19, 15, 20, -2, 7, -18, -18, 10, 10, 2, 0, 15, 7, 5, 13, 20, -13, -19, 19, -16, 16, -5, -15, -11, -13, 19, 18, -16, -19, -9, 14, 6, -13, 7, -19, 17, -8, -9, 10, -9, -7, -3, 13, 6, 5, -17, -5, -13, 17, 14, 16, -20, 3, 8, 10, -20, 9, -20, -15, 13, -20, -10, 0, -5, -15, 10, 12, 19, 12, 18];
